p tdp 20 57
1 3
1 4
1 9
1 13
1 18
2 3
2 4
2 8
2 9
2 12
2 16
3 5
3 6
3 9
3 13
3 20
4 7
4 8
4 10
4 12
4 13
4 15
4 18
4 20
5 8
5 9
5 10
5 11
5 12
5 20
6 10
6 12
6 14
6 20
7 9
7 11
7 12
7 14
7 18
8 13
8 17
9 13
9 14
9 16
9 18
11 13
11 15
12 14
12 15
12 16
12 20
13 14
13 19
14 15
14 17
15 17
15 18
